&bands
prefix = 'silicon',
outdir = './',
filband = 'band.dat'
/
