 &control
    calculation = 'scf',
    prefix = 'silicon'
    outdir = './.'
    pseudo_dir = './.'
 /
 &system
    ibrav =  2,
    celldm(1) = 10.0,
    nat =  2,
    ntyp = 1,
    ecutwfc = 30.0
 /
 &electrons
    mixing_beta = 0.6
 /
 
ATOMIC_SPECIES
 Si 28.086  Si.UPF
 
ATOMIC_POSITIONS (alat)
 Si 0.0 0.0 0.0
 Si 0.25 0.25 0.25
 
 K_POINTS automatic 
08 08 08 1 1 1
