 &control
    calculation = 'relax'
    restart_mode= 'from_scratch'
    prefix='graphene'
    tstress=.true.
    tprnfor=.true.
    forc_conv_thr=1.0d-3
    etot_conv_thr=1.0d-4
    verbosity='high'	
    outdir='./'
    pseudo_dir = './',
 /
 &SYSTEM
 ibrav=4
 celldm(1)=18.6
 celldm(3)=2.0325
 nat=34
 ntyp=3
 !nspin=2
 !starting_magnetization =0.5
!starting_magnetization(3)=0.5
 ecutwfc=35
 ecutrho=350
 occupations='smearing'
 smearing='mv'
 !nbnd = 8
 degauss=0.022
 /
 
 &ELECTRONS
 diagonalization='david'
 mixing_mode='plain'
 electron_maxstep = 100,
 conv_thr = 1.0D-8,
 mixing_beta=0.6
 /
 &ions
 /
 ATOMIC_SPECIES
 C 12.011 C.pbe-rrkjus.UPF
 Co 58.933194 Co.pbe-spn-rrkjus_psl.0.3.1.UPF
 N  14.0067  N.pbe-n-rrkjus_psl.1.0.0.UPF
ATOMIC_POSITIONS (angstrom)
C       -0.022982988   1.407301328   0.000000000
C        1.190989104   0.650230847   0.000000000
C       -1.264214243   3.559876498   0.000000000
C       -0.071652218   2.837172339   0.000000000
C       -2.460759818   5.682536228   0.000000000
C       -1.242390295   4.979107406   0.000000000
C       -3.700758632   7.780105732   0.000000000
C       -2.460759884   7.089389757   0.000000000
C        2.460594066   1.192031359   0.000000000
C        3.730194672   0.650228340   0.000000000
C        1.032361043   3.665789521   0.000000000
Co       2.460582875   2.841210965   0.000000000
C       -0.024213961   5.707626344   0.000000000
C        1.197952556   5.036196731   0.000000000
C       -1.220757948   7.780104118   0.000000000
C        0.007353713   7.107502415   0.000000000
C        4.944171631   1.407295296   0.000000000
C        6.155037417   0.708179668   0.000000000
C        3.888817861   3.665784545   0.000000000
C        4.992830890   2.837168615   0.000000000
Co       2.460589098   5.708988518   0.000000000
C        3.723223079   5.036192961   0.000000000
C        1.228429923   7.812476155   0.000000000
C        2.460580279   7.107188601   0.000000000
C        7.381931231   1.422616007   0.000000000
C        8.608841699   0.708192462   0.000000000
C        6.185395051   3.559875097   0.000000000
C        7.381936112   2.832577866   0.000000000
C        4.945391290   5.707627863   0.000000000
C        6.163564614   4.979106572   0.000000000
C        3.692741521   7.812473305   0.000000000
C        4.913814135   7.107507308   0.000000000
N       2.460585987    4.275099742    1.800000000
N       2.460585987    4.275099742    2.910000000
 K_POINTS {automatic}
 4 4 1 0 0 0
